* #variable= 567 #constraint= 552 
-1 x19 +1 x1 >= 0 ;
-1 x19 +1 x10 >= 0 ;
+1 x19 -1 x1 -1 x10 >= -1 ;
+1 x28 -1 x1 >= 0 ;
+1 x28 -1 x10 >= 0 ;
-1 x28 +1 x1 +1 x10 >= 0 ;
+1 x10 = 0 ;
-1 x20 +1 x2 >= 0 ;
-1 x20 +1 x11 >= 0 ;
+1 x20 -1 x2 -1 x11 >= -1 ;
+1 x29 -1 x2 >= 0 ;
+1 x29 -1 x11 >= 0 ;
-1 x29 +1 x2 +1 x11 >= 0 ;
+1 x11 = 1 ;
-1 x21 +1 x3 >= 0 ;
-1 x21 +1 x12 >= 0 ;
+1 x21 -1 x3 -1 x12 >= -1 ;
+1 x30 -1 x3 >= 0 ;
+1 x30 -1 x12 >= 0 ;
-1 x30 +1 x3 +1 x12 >= 0 ;
+1 x12 = 0 ;
-1 x22 +1 x4 >= 0 ;
-1 x22 +1 x13 >= 0 ;
+1 x22 -1 x4 -1 x13 >= -1 ;
+1 x31 -1 x4 >= 0 ;
+1 x31 -1 x13 >= 0 ;
-1 x31 +1 x4 +1 x13 >= 0 ;
+1 x13 = 1 ;
-1 x23 +1 x5 >= 0 ;
-1 x23 +1 x14 >= 0 ;
+1 x23 -1 x5 -1 x14 >= -1 ;
+1 x32 -1 x5 >= 0 ;
+1 x32 -1 x14 >= 0 ;
-1 x32 +1 x5 +1 x14 >= 0 ;
+1 x14 = 0 ;
-1 x24 +1 x6 >= 0 ;
-1 x24 +1 x15 >= 0 ;
+1 x24 -1 x6 -1 x15 >= -1 ;
+1 x33 -1 x6 >= 0 ;
+1 x33 -1 x15 >= 0 ;
-1 x33 +1 x6 +1 x15 >= 0 ;
+1 x15 = 1 ;
-1 x25 +1 x7 >= 0 ;
-1 x25 +1 x16 >= 0 ;
+1 x25 -1 x7 -1 x16 >= -1 ;
+1 x34 -1 x7 >= 0 ;
+1 x34 -1 x16 >= 0 ;
-1 x34 +1 x7 +1 x16 >= 0 ;
+1 x16 = 0 ;
-1 x26 +1 x8 >= 0 ;
-1 x26 +1 x17 >= 0 ;
+1 x26 -1 x8 -1 x17 >= -1 ;
+1 x35 -1 x8 >= 0 ;
+1 x35 -1 x17 >= 0 ;
-1 x35 +1 x8 +1 x17 >= 0 ;
+1 x17 = 1 ;
-1 x27 +1 x9 >= 0 ;
-1 x27 +1 x18 >= 0 ;
+1 x27 -1 x9 -1 x18 >= -1 ;
+1 x36 -1 x9 >= 0 ;
+1 x36 -1 x18 >= 0 ;
-1 x36 +1 x9 +1 x18 >= 0 ;
+1 x18 = 0 ;
-1 x46 +1 x28 >= 0 ;
-1 x46 +1 x37 >= 0 ;
+1 x46 -1 x28 -1 x37 >= -1 ;
+1 x46 +2 x55 +4 x64 +8 x73 +16 x82 +32 x91 +64 x100 +128 x109 +256 x118 +2 x47 +4 x56 +8 x65 +16 x74 +32 x83 +64 x92 +128 x101 +256 x110 +512 x119 +4 x48 +8 x57 +16 x66 +32 x75 +64 x84 +128 x93 +256 x102 +512 x111 +1024 x120 +8 x49 +16 x58 +32 x67 +64 x76 +128 x85 +256 x94 +512 x103 +1024 x112 +2048 x121 +16 x50 +32 x59 +64 x68 +128 x77 +256 x86 +512 x95 +1024 x104 +2048 x113 +4096 x122 +32 x51 +64 x60 +128 x69 +256 x78 +512 x87 +1024 x96 +2048 x105 +4096 x114 +8192 x123 +64 x52 +128 x61 +256 x70 +512 x79 +1024 x88 +2048 x97 +4096 x106 +8192 x115 +16384 x124 +128 x53 +256 x62 +512 x71 +1024 x80 +2048 x89 +4096 x98 +8192 x107 +16384 x116 +32768 x125 +256 x54 +512 x63 +1024 x72 +2048 x81 +4096 x90 +8192 x99 +16384 x108 +32768 x117 +65536 x126 -1 x532 -2 x533 -4 x534 -8 x535 -16 x536 -32 x537 -64 x538 -128 x539 -256 x540 -512 x541 -1024 x542 -2048 x543 -4096 x544 -8192 x545 -16384 x546 -32768 x547 -65536 x548 -131072 x549 = 0; 
-1 x289 +1 x19 >= 0 ;
-1 x289 +1 x37 >= 0 ;
+1 x289 -1 x19 -1 x37 >= -1 ;
+1 x289 +2 x298 +4 x307 +8 x316 +16 x325 +32 x334 +64 x343 +128 x352 +256 x361 +2 x290 +4 x299 +8 x308 +16 x317 +32 x326 +64 x335 +128 x344 +256 x353 +512 x362 +4 x291 +8 x300 +16 x309 +32 x318 +64 x327 +128 x336 +256 x345 +512 x354 +1024 x363 +8 x292 +16 x301 +32 x310 +64 x319 +128 x328 +256 x337 +512 x346 +1024 x355 +2048 x364 +16 x293 +32 x302 +64 x311 +128 x320 +256 x329 +512 x338 +1024 x347 +2048 x356 +4096 x365 +32 x294 +64 x303 +128 x312 +256 x321 +512 x330 +1024 x339 +2048 x348 +4096 x357 +8192 x366 +64 x295 +128 x304 +256 x313 +512 x322 +1024 x331 +2048 x340 +4096 x349 +8192 x358 +16384 x367 +128 x296 +256 x305 +512 x314 +1024 x323 +2048 x332 +4096 x341 +8192 x350 +16384 x359 +32768 x368 +256 x297 +512 x306 +1024 x315 +2048 x324 +4096 x333 +8192 x342 +16384 x351 +32768 x360 +65536 x369 -1 x550 -2 x551 -4 x552 -8 x553 -16 x554 -32 x555 -64 x556 -128 x557 -256 x558 -512 x559 -1024 x560 -2048 x561 -4096 x562 -8192 x563 -16384 x564 -32768 x565 -65536 x566 -131072 x567 = 0; 
+1 x550 -1 x532 +2 x551 -2 x533 +4 x552 -4 x534 +8 x553 -8 x535 +16 x554 -16 x536 +32 x555 -32 x537 +64 x556 -64 x538 +128 x557 -128 x539 +256 x558 -256 x540 +512 x559 -512 x541 +1024 x560 -1024 x542 +2048 x561 -2048 x543 +4096 x562 -4096 x544 +8192 x563 -8192 x545 +16384 x564 -16384 x546 +32768 x565 -32768 x547 +65536 x566 -65536 x548 +131072 x567 -131072 x549 >= 1 ;
-1 x55 +1 x29 >= 0 ;
-1 x55 +1 x37 >= 0 ;
+1 x55 -1 x29 -1 x37 >= -1 ;
-1 x47 +1 x28 >= 0 ;
-1 x47 +1 x38 >= 0 ;
+1 x47 -1 x28 -1 x38 >= -1 ;
-1 x298 +1 x20 >= 0 ;
-1 x298 +1 x37 >= 0 ;
+1 x298 -1 x20 -1 x37 >= -1 ;
-1 x290 +1 x19 >= 0 ;
-1 x290 +1 x38 >= 0 ;
+1 x290 -1 x19 -1 x38 >= -1 ;
-1 x64 +1 x30 >= 0 ;
-1 x64 +1 x37 >= 0 ;
+1 x64 -1 x30 -1 x37 >= -1 ;
-1 x56 +1 x29 >= 0 ;
-1 x56 +1 x38 >= 0 ;
+1 x56 -1 x29 -1 x38 >= -1 ;
-1 x48 +1 x28 >= 0 ;
-1 x48 +1 x39 >= 0 ;
+1 x48 -1 x28 -1 x39 >= -1 ;
-1 x307 +1 x21 >= 0 ;
-1 x307 +1 x37 >= 0 ;
+1 x307 -1 x21 -1 x37 >= -1 ;
-1 x299 +1 x20 >= 0 ;
-1 x299 +1 x38 >= 0 ;
+1 x299 -1 x20 -1 x38 >= -1 ;
-1 x291 +1 x19 >= 0 ;
-1 x291 +1 x39 >= 0 ;
+1 x291 -1 x19 -1 x39 >= -1 ;
-1 x73 +1 x31 >= 0 ;
-1 x73 +1 x37 >= 0 ;
+1 x73 -1 x31 -1 x37 >= -1 ;
-1 x65 +1 x30 >= 0 ;
-1 x65 +1 x38 >= 0 ;
+1 x65 -1 x30 -1 x38 >= -1 ;
-1 x57 +1 x29 >= 0 ;
-1 x57 +1 x39 >= 0 ;
+1 x57 -1 x29 -1 x39 >= -1 ;
-1 x49 +1 x28 >= 0 ;
-1 x49 +1 x40 >= 0 ;
+1 x49 -1 x28 -1 x40 >= -1 ;
-1 x316 +1 x22 >= 0 ;
-1 x316 +1 x37 >= 0 ;
+1 x316 -1 x22 -1 x37 >= -1 ;
-1 x308 +1 x21 >= 0 ;
-1 x308 +1 x38 >= 0 ;
+1 x308 -1 x21 -1 x38 >= -1 ;
-1 x300 +1 x20 >= 0 ;
-1 x300 +1 x39 >= 0 ;
+1 x300 -1 x20 -1 x39 >= -1 ;
-1 x292 +1 x19 >= 0 ;
-1 x292 +1 x40 >= 0 ;
+1 x292 -1 x19 -1 x40 >= -1 ;
-1 x82 +1 x32 >= 0 ;
-1 x82 +1 x37 >= 0 ;
+1 x82 -1 x32 -1 x37 >= -1 ;
-1 x74 +1 x31 >= 0 ;
-1 x74 +1 x38 >= 0 ;
+1 x74 -1 x31 -1 x38 >= -1 ;
-1 x66 +1 x30 >= 0 ;
-1 x66 +1 x39 >= 0 ;
+1 x66 -1 x30 -1 x39 >= -1 ;
-1 x58 +1 x29 >= 0 ;
-1 x58 +1 x40 >= 0 ;
+1 x58 -1 x29 -1 x40 >= -1 ;
-1 x50 +1 x28 >= 0 ;
-1 x50 +1 x41 >= 0 ;
+1 x50 -1 x28 -1 x41 >= -1 ;
-1 x325 +1 x23 >= 0 ;
-1 x325 +1 x37 >= 0 ;
+1 x325 -1 x23 -1 x37 >= -1 ;
-1 x317 +1 x22 >= 0 ;
-1 x317 +1 x38 >= 0 ;
+1 x317 -1 x22 -1 x38 >= -1 ;
-1 x309 +1 x21 >= 0 ;
-1 x309 +1 x39 >= 0 ;
+1 x309 -1 x21 -1 x39 >= -1 ;
-1 x301 +1 x20 >= 0 ;
-1 x301 +1 x40 >= 0 ;
+1 x301 -1 x20 -1 x40 >= -1 ;
-1 x293 +1 x19 >= 0 ;
-1 x293 +1 x41 >= 0 ;
+1 x293 -1 x19 -1 x41 >= -1 ;
-1 x91 +1 x33 >= 0 ;
-1 x91 +1 x37 >= 0 ;
+1 x91 -1 x33 -1 x37 >= -1 ;
-1 x83 +1 x32 >= 0 ;
-1 x83 +1 x38 >= 0 ;
+1 x83 -1 x32 -1 x38 >= -1 ;
-1 x75 +1 x31 >= 0 ;
-1 x75 +1 x39 >= 0 ;
+1 x75 -1 x31 -1 x39 >= -1 ;
-1 x67 +1 x30 >= 0 ;
-1 x67 +1 x40 >= 0 ;
+1 x67 -1 x30 -1 x40 >= -1 ;
-1 x59 +1 x29 >= 0 ;
-1 x59 +1 x41 >= 0 ;
+1 x59 -1 x29 -1 x41 >= -1 ;
-1 x51 +1 x28 >= 0 ;
-1 x51 +1 x42 >= 0 ;
+1 x51 -1 x28 -1 x42 >= -1 ;
-1 x334 +1 x24 >= 0 ;
-1 x334 +1 x37 >= 0 ;
+1 x334 -1 x24 -1 x37 >= -1 ;
-1 x326 +1 x23 >= 0 ;
-1 x326 +1 x38 >= 0 ;
+1 x326 -1 x23 -1 x38 >= -1 ;
-1 x318 +1 x22 >= 0 ;
-1 x318 +1 x39 >= 0 ;
+1 x318 -1 x22 -1 x39 >= -1 ;
-1 x310 +1 x21 >= 0 ;
-1 x310 +1 x40 >= 0 ;
+1 x310 -1 x21 -1 x40 >= -1 ;
-1 x302 +1 x20 >= 0 ;
-1 x302 +1 x41 >= 0 ;
+1 x302 -1 x20 -1 x41 >= -1 ;
-1 x294 +1 x19 >= 0 ;
-1 x294 +1 x42 >= 0 ;
+1 x294 -1 x19 -1 x42 >= -1 ;
-1 x100 +1 x34 >= 0 ;
-1 x100 +1 x37 >= 0 ;
+1 x100 -1 x34 -1 x37 >= -1 ;
-1 x92 +1 x33 >= 0 ;
-1 x92 +1 x38 >= 0 ;
+1 x92 -1 x33 -1 x38 >= -1 ;
-1 x84 +1 x32 >= 0 ;
-1 x84 +1 x39 >= 0 ;
+1 x84 -1 x32 -1 x39 >= -1 ;
-1 x76 +1 x31 >= 0 ;
-1 x76 +1 x40 >= 0 ;
+1 x76 -1 x31 -1 x40 >= -1 ;
-1 x68 +1 x30 >= 0 ;
-1 x68 +1 x41 >= 0 ;
+1 x68 -1 x30 -1 x41 >= -1 ;
-1 x60 +1 x29 >= 0 ;
-1 x60 +1 x42 >= 0 ;
+1 x60 -1 x29 -1 x42 >= -1 ;
-1 x52 +1 x28 >= 0 ;
-1 x52 +1 x43 >= 0 ;
+1 x52 -1 x28 -1 x43 >= -1 ;
-1 x343 +1 x25 >= 0 ;
-1 x343 +1 x37 >= 0 ;
+1 x343 -1 x25 -1 x37 >= -1 ;
-1 x335 +1 x24 >= 0 ;
-1 x335 +1 x38 >= 0 ;
+1 x335 -1 x24 -1 x38 >= -1 ;
-1 x327 +1 x23 >= 0 ;
-1 x327 +1 x39 >= 0 ;
+1 x327 -1 x23 -1 x39 >= -1 ;
-1 x319 +1 x22 >= 0 ;
-1 x319 +1 x40 >= 0 ;
+1 x319 -1 x22 -1 x40 >= -1 ;
-1 x311 +1 x21 >= 0 ;
-1 x311 +1 x41 >= 0 ;
+1 x311 -1 x21 -1 x41 >= -1 ;
-1 x303 +1 x20 >= 0 ;
-1 x303 +1 x42 >= 0 ;
+1 x303 -1 x20 -1 x42 >= -1 ;
-1 x295 +1 x19 >= 0 ;
-1 x295 +1 x43 >= 0 ;
+1 x295 -1 x19 -1 x43 >= -1 ;
-1 x109 +1 x35 >= 0 ;
-1 x109 +1 x37 >= 0 ;
+1 x109 -1 x35 -1 x37 >= -1 ;
-1 x101 +1 x34 >= 0 ;
-1 x101 +1 x38 >= 0 ;
+1 x101 -1 x34 -1 x38 >= -1 ;
-1 x93 +1 x33 >= 0 ;
-1 x93 +1 x39 >= 0 ;
+1 x93 -1 x33 -1 x39 >= -1 ;
-1 x85 +1 x32 >= 0 ;
-1 x85 +1 x40 >= 0 ;
+1 x85 -1 x32 -1 x40 >= -1 ;
-1 x77 +1 x31 >= 0 ;
-1 x77 +1 x41 >= 0 ;
+1 x77 -1 x31 -1 x41 >= -1 ;
-1 x69 +1 x30 >= 0 ;
-1 x69 +1 x42 >= 0 ;
+1 x69 -1 x30 -1 x42 >= -1 ;
-1 x61 +1 x29 >= 0 ;
-1 x61 +1 x43 >= 0 ;
+1 x61 -1 x29 -1 x43 >= -1 ;
-1 x53 +1 x28 >= 0 ;
-1 x53 +1 x44 >= 0 ;
+1 x53 -1 x28 -1 x44 >= -1 ;
-1 x352 +1 x26 >= 0 ;
-1 x352 +1 x37 >= 0 ;
+1 x352 -1 x26 -1 x37 >= -1 ;
-1 x344 +1 x25 >= 0 ;
-1 x344 +1 x38 >= 0 ;
+1 x344 -1 x25 -1 x38 >= -1 ;
-1 x336 +1 x24 >= 0 ;
-1 x336 +1 x39 >= 0 ;
+1 x336 -1 x24 -1 x39 >= -1 ;
-1 x328 +1 x23 >= 0 ;
-1 x328 +1 x40 >= 0 ;
+1 x328 -1 x23 -1 x40 >= -1 ;
-1 x320 +1 x22 >= 0 ;
-1 x320 +1 x41 >= 0 ;
+1 x320 -1 x22 -1 x41 >= -1 ;
-1 x312 +1 x21 >= 0 ;
-1 x312 +1 x42 >= 0 ;
+1 x312 -1 x21 -1 x42 >= -1 ;
-1 x304 +1 x20 >= 0 ;
-1 x304 +1 x43 >= 0 ;
+1 x304 -1 x20 -1 x43 >= -1 ;
-1 x296 +1 x19 >= 0 ;
-1 x296 +1 x44 >= 0 ;
+1 x296 -1 x19 -1 x44 >= -1 ;
-1 x118 +1 x36 >= 0 ;
-1 x118 +1 x37 >= 0 ;
+1 x118 -1 x36 -1 x37 >= -1 ;
-1 x110 +1 x35 >= 0 ;
-1 x110 +1 x38 >= 0 ;
+1 x110 -1 x35 -1 x38 >= -1 ;
-1 x102 +1 x34 >= 0 ;
-1 x102 +1 x39 >= 0 ;
+1 x102 -1 x34 -1 x39 >= -1 ;
-1 x94 +1 x33 >= 0 ;
-1 x94 +1 x40 >= 0 ;
+1 x94 -1 x33 -1 x40 >= -1 ;
-1 x86 +1 x32 >= 0 ;
-1 x86 +1 x41 >= 0 ;
+1 x86 -1 x32 -1 x41 >= -1 ;
-1 x78 +1 x31 >= 0 ;
-1 x78 +1 x42 >= 0 ;
+1 x78 -1 x31 -1 x42 >= -1 ;
-1 x70 +1 x30 >= 0 ;
-1 x70 +1 x43 >= 0 ;
+1 x70 -1 x30 -1 x43 >= -1 ;
-1 x62 +1 x29 >= 0 ;
-1 x62 +1 x44 >= 0 ;
+1 x62 -1 x29 -1 x44 >= -1 ;
-1 x54 +1 x28 >= 0 ;
-1 x54 +1 x45 >= 0 ;
+1 x54 -1 x28 -1 x45 >= -1 ;
-1 x361 +1 x27 >= 0 ;
-1 x361 +1 x37 >= 0 ;
+1 x361 -1 x27 -1 x37 >= -1 ;
-1 x353 +1 x26 >= 0 ;
-1 x353 +1 x38 >= 0 ;
+1 x353 -1 x26 -1 x38 >= -1 ;
-1 x345 +1 x25 >= 0 ;
-1 x345 +1 x39 >= 0 ;
+1 x345 -1 x25 -1 x39 >= -1 ;
-1 x337 +1 x24 >= 0 ;
-1 x337 +1 x40 >= 0 ;
+1 x337 -1 x24 -1 x40 >= -1 ;
-1 x329 +1 x23 >= 0 ;
-1 x329 +1 x41 >= 0 ;
+1 x329 -1 x23 -1 x41 >= -1 ;
-1 x321 +1 x22 >= 0 ;
-1 x321 +1 x42 >= 0 ;
+1 x321 -1 x22 -1 x42 >= -1 ;
-1 x313 +1 x21 >= 0 ;
-1 x313 +1 x43 >= 0 ;
+1 x313 -1 x21 -1 x43 >= -1 ;
-1 x305 +1 x20 >= 0 ;
-1 x305 +1 x44 >= 0 ;
+1 x305 -1 x20 -1 x44 >= -1 ;
-1 x297 +1 x19 >= 0 ;
-1 x297 +1 x45 >= 0 ;
+1 x297 -1 x19 -1 x45 >= -1 ;
-1 x119 +1 x36 >= 0 ;
-1 x119 +1 x38 >= 0 ;
+1 x119 -1 x36 -1 x38 >= -1 ;
-1 x111 +1 x35 >= 0 ;
-1 x111 +1 x39 >= 0 ;
+1 x111 -1 x35 -1 x39 >= -1 ;
-1 x103 +1 x34 >= 0 ;
-1 x103 +1 x40 >= 0 ;
+1 x103 -1 x34 -1 x40 >= -1 ;
-1 x95 +1 x33 >= 0 ;
-1 x95 +1 x41 >= 0 ;
+1 x95 -1 x33 -1 x41 >= -1 ;
-1 x87 +1 x32 >= 0 ;
-1 x87 +1 x42 >= 0 ;
+1 x87 -1 x32 -1 x42 >= -1 ;
-1 x79 +1 x31 >= 0 ;
-1 x79 +1 x43 >= 0 ;
+1 x79 -1 x31 -1 x43 >= -1 ;
-1 x71 +1 x30 >= 0 ;
-1 x71 +1 x44 >= 0 ;
+1 x71 -1 x30 -1 x44 >= -1 ;
-1 x63 +1 x29 >= 0 ;
-1 x63 +1 x45 >= 0 ;
+1 x63 -1 x29 -1 x45 >= -1 ;
-1 x362 +1 x27 >= 0 ;
-1 x362 +1 x38 >= 0 ;
+1 x362 -1 x27 -1 x38 >= -1 ;
-1 x354 +1 x26 >= 0 ;
-1 x354 +1 x39 >= 0 ;
+1 x354 -1 x26 -1 x39 >= -1 ;
-1 x346 +1 x25 >= 0 ;
-1 x346 +1 x40 >= 0 ;
+1 x346 -1 x25 -1 x40 >= -1 ;
-1 x338 +1 x24 >= 0 ;
-1 x338 +1 x41 >= 0 ;
+1 x338 -1 x24 -1 x41 >= -1 ;
-1 x330 +1 x23 >= 0 ;
-1 x330 +1 x42 >= 0 ;
+1 x330 -1 x23 -1 x42 >= -1 ;
-1 x322 +1 x22 >= 0 ;
-1 x322 +1 x43 >= 0 ;
+1 x322 -1 x22 -1 x43 >= -1 ;
-1 x314 +1 x21 >= 0 ;
-1 x314 +1 x44 >= 0 ;
+1 x314 -1 x21 -1 x44 >= -1 ;
-1 x306 +1 x20 >= 0 ;
-1 x306 +1 x45 >= 0 ;
+1 x306 -1 x20 -1 x45 >= -1 ;
-1 x120 +1 x36 >= 0 ;
-1 x120 +1 x39 >= 0 ;
+1 x120 -1 x36 -1 x39 >= -1 ;
-1 x112 +1 x35 >= 0 ;
-1 x112 +1 x40 >= 0 ;
+1 x112 -1 x35 -1 x40 >= -1 ;
-1 x104 +1 x34 >= 0 ;
-1 x104 +1 x41 >= 0 ;
+1 x104 -1 x34 -1 x41 >= -1 ;
-1 x96 +1 x33 >= 0 ;
-1 x96 +1 x42 >= 0 ;
+1 x96 -1 x33 -1 x42 >= -1 ;
-1 x88 +1 x32 >= 0 ;
-1 x88 +1 x43 >= 0 ;
+1 x88 -1 x32 -1 x43 >= -1 ;
-1 x80 +1 x31 >= 0 ;
-1 x80 +1 x44 >= 0 ;
+1 x80 -1 x31 -1 x44 >= -1 ;
-1 x72 +1 x30 >= 0 ;
-1 x72 +1 x45 >= 0 ;
+1 x72 -1 x30 -1 x45 >= -1 ;
-1 x363 +1 x27 >= 0 ;
-1 x363 +1 x39 >= 0 ;
+1 x363 -1 x27 -1 x39 >= -1 ;
-1 x355 +1 x26 >= 0 ;
-1 x355 +1 x40 >= 0 ;
+1 x355 -1 x26 -1 x40 >= -1 ;
-1 x347 +1 x25 >= 0 ;
-1 x347 +1 x41 >= 0 ;
+1 x347 -1 x25 -1 x41 >= -1 ;
-1 x339 +1 x24 >= 0 ;
-1 x339 +1 x42 >= 0 ;
+1 x339 -1 x24 -1 x42 >= -1 ;
-1 x331 +1 x23 >= 0 ;
-1 x331 +1 x43 >= 0 ;
+1 x331 -1 x23 -1 x43 >= -1 ;
-1 x323 +1 x22 >= 0 ;
-1 x323 +1 x44 >= 0 ;
+1 x323 -1 x22 -1 x44 >= -1 ;
-1 x315 +1 x21 >= 0 ;
-1 x315 +1 x45 >= 0 ;
+1 x315 -1 x21 -1 x45 >= -1 ;
-1 x121 +1 x36 >= 0 ;
-1 x121 +1 x40 >= 0 ;
+1 x121 -1 x36 -1 x40 >= -1 ;
-1 x113 +1 x35 >= 0 ;
-1 x113 +1 x41 >= 0 ;
+1 x113 -1 x35 -1 x41 >= -1 ;
-1 x105 +1 x34 >= 0 ;
-1 x105 +1 x42 >= 0 ;
+1 x105 -1 x34 -1 x42 >= -1 ;
-1 x97 +1 x33 >= 0 ;
-1 x97 +1 x43 >= 0 ;
+1 x97 -1 x33 -1 x43 >= -1 ;
-1 x89 +1 x32 >= 0 ;
-1 x89 +1 x44 >= 0 ;
+1 x89 -1 x32 -1 x44 >= -1 ;
-1 x81 +1 x31 >= 0 ;
-1 x81 +1 x45 >= 0 ;
+1 x81 -1 x31 -1 x45 >= -1 ;
-1 x364 +1 x27 >= 0 ;
-1 x364 +1 x40 >= 0 ;
+1 x364 -1 x27 -1 x40 >= -1 ;
-1 x356 +1 x26 >= 0 ;
-1 x356 +1 x41 >= 0 ;
+1 x356 -1 x26 -1 x41 >= -1 ;
-1 x348 +1 x25 >= 0 ;
-1 x348 +1 x42 >= 0 ;
+1 x348 -1 x25 -1 x42 >= -1 ;
-1 x340 +1 x24 >= 0 ;
-1 x340 +1 x43 >= 0 ;
+1 x340 -1 x24 -1 x43 >= -1 ;
-1 x332 +1 x23 >= 0 ;
-1 x332 +1 x44 >= 0 ;
+1 x332 -1 x23 -1 x44 >= -1 ;
-1 x324 +1 x22 >= 0 ;
-1 x324 +1 x45 >= 0 ;
+1 x324 -1 x22 -1 x45 >= -1 ;
-1 x122 +1 x36 >= 0 ;
-1 x122 +1 x41 >= 0 ;
+1 x122 -1 x36 -1 x41 >= -1 ;
-1 x114 +1 x35 >= 0 ;
-1 x114 +1 x42 >= 0 ;
+1 x114 -1 x35 -1 x42 >= -1 ;
-1 x106 +1 x34 >= 0 ;
-1 x106 +1 x43 >= 0 ;
+1 x106 -1 x34 -1 x43 >= -1 ;
-1 x98 +1 x33 >= 0 ;
-1 x98 +1 x44 >= 0 ;
+1 x98 -1 x33 -1 x44 >= -1 ;
-1 x90 +1 x32 >= 0 ;
-1 x90 +1 x45 >= 0 ;
+1 x90 -1 x32 -1 x45 >= -1 ;
-1 x365 +1 x27 >= 0 ;
-1 x365 +1 x41 >= 0 ;
+1 x365 -1 x27 -1 x41 >= -1 ;
-1 x357 +1 x26 >= 0 ;
-1 x357 +1 x42 >= 0 ;
+1 x357 -1 x26 -1 x42 >= -1 ;
-1 x349 +1 x25 >= 0 ;
-1 x349 +1 x43 >= 0 ;
+1 x349 -1 x25 -1 x43 >= -1 ;
-1 x341 +1 x24 >= 0 ;
-1 x341 +1 x44 >= 0 ;
+1 x341 -1 x24 -1 x44 >= -1 ;
-1 x333 +1 x23 >= 0 ;
-1 x333 +1 x45 >= 0 ;
+1 x333 -1 x23 -1 x45 >= -1 ;
-1 x123 +1 x36 >= 0 ;
-1 x123 +1 x42 >= 0 ;
+1 x123 -1 x36 -1 x42 >= -1 ;
-1 x115 +1 x35 >= 0 ;
-1 x115 +1 x43 >= 0 ;
+1 x115 -1 x35 -1 x43 >= -1 ;
-1 x107 +1 x34 >= 0 ;
-1 x107 +1 x44 >= 0 ;
+1 x107 -1 x34 -1 x44 >= -1 ;
-1 x99 +1 x33 >= 0 ;
-1 x99 +1 x45 >= 0 ;
+1 x99 -1 x33 -1 x45 >= -1 ;
-1 x366 +1 x27 >= 0 ;
-1 x366 +1 x42 >= 0 ;
+1 x366 -1 x27 -1 x42 >= -1 ;
-1 x358 +1 x26 >= 0 ;
-1 x358 +1 x43 >= 0 ;
+1 x358 -1 x26 -1 x43 >= -1 ;
-1 x350 +1 x25 >= 0 ;
-1 x350 +1 x44 >= 0 ;
+1 x350 -1 x25 -1 x44 >= -1 ;
-1 x342 +1 x24 >= 0 ;
-1 x342 +1 x45 >= 0 ;
+1 x342 -1 x24 -1 x45 >= -1 ;
-1 x124 +1 x36 >= 0 ;
-1 x124 +1 x43 >= 0 ;
+1 x124 -1 x36 -1 x43 >= -1 ;
-1 x116 +1 x35 >= 0 ;
-1 x116 +1 x44 >= 0 ;
+1 x116 -1 x35 -1 x44 >= -1 ;
-1 x108 +1 x34 >= 0 ;
-1 x108 +1 x45 >= 0 ;
+1 x108 -1 x34 -1 x45 >= -1 ;
-1 x367 +1 x27 >= 0 ;
-1 x367 +1 x43 >= 0 ;
+1 x367 -1 x27 -1 x43 >= -1 ;
-1 x359 +1 x26 >= 0 ;
-1 x359 +1 x44 >= 0 ;
+1 x359 -1 x26 -1 x44 >= -1 ;
-1 x351 +1 x25 >= 0 ;
-1 x351 +1 x45 >= 0 ;
+1 x351 -1 x25 -1 x45 >= -1 ;
-1 x125 +1 x36 >= 0 ;
-1 x125 +1 x44 >= 0 ;
+1 x125 -1 x36 -1 x44 >= -1 ;
-1 x117 +1 x35 >= 0 ;
-1 x117 +1 x45 >= 0 ;
+1 x117 -1 x35 -1 x45 >= -1 ;
-1 x368 +1 x27 >= 0 ;
-1 x368 +1 x44 >= 0 ;
+1 x368 -1 x27 -1 x44 >= -1 ;
-1 x360 +1 x26 >= 0 ;
-1 x360 +1 x45 >= 0 ;
+1 x360 -1 x26 -1 x45 >= -1 ;
-1 x126 +1 x36 >= 0 ;
-1 x126 +1 x45 >= 0 ;
+1 x126 -1 x36 -1 x45 >= -1 ;
-1 x369 +1 x27 >= 0 ;
-1 x369 +1 x45 >= 0 ;
+1 x369 -1 x27 -1 x45 >= -1 ;
